v1 = 5;
v2 = 5;
vertexWeights = [-45, -45, -45, -45, -45, -45, -90, -90, -90, -90, -90, -45, -90, -64.85560885536424, -90, -90, -90, -45, -90, -78.92401408950256, -90, -90, -90, -45, -83.48652585896721, -90, -90, -90, -90, -45, -90, -90, -90, -90, -90];
edgeWeights = [| 0, -7.5, 0, 0, 0, 0, 0, -7.5, 0, 0, 0, 0, 0, -7.5, 0, 0, 0, 0, 0, -7.5, 0, 0, 0, 0, 0, -7.5, 0, 0, 0, 0, 0, -7.5, 0, 0, 0
| -7.5, 0, -7.5, 0, 0, 0, -7.5, 0, -7.5, 0, 0, 0, -7.5, 0, -7.5, 0, 0, 0, -7.5, 0, -7.5, 0, 0, 0, -7.5, 0, -7.5, 0, 0, 0, -7.5, 0, -7.5, 0, 0
| 0, -7.5, 0, 0, -7.5, 0, 0, -7.5, 0, 0, -7.5, 0, 0, -7.5, 0, 0, -7.5, 0, 0, -7.5, 0, 0, -7.5, 0, 0, -7.5, 0, 0, -7.5, 0, 0, -7.5, 0, 0, -7.5
| 0, 0, 0, 0, 0, 0, 0, 0, 0, 0, 0, 0, 0, 0, 0, 0, 0, 0, 0, 0, 0, 0, 0, 0, 0, 0, 0, 0, 0, 0, 0, 0, 0, 0, 0
| 0, 0, -7.5, 0, 0, 0, 0, 0, -7.5, 0, 0, 0, 0, 0, -7.5, 0, 0, 0, 0, 0, -7.5, 0, 0, 0, 0, 0, -7.5, 0, 0, 0, 0, 0, -7.5, 0, 0
| 0, 0, 0, 0, 0, 0, 0, 0, 0, 0, 0, -7.5, -7.5, -7.5, -7.5, -7.5, -7.5, -7.5, -7.5, -7.5, -7.5, -7.5, -7.5, -7.5, -7.5, -7.5, -7.5, -7.5, -7.5, -7.5, -7.5, -7.5, -7.5, -7.5, -7.5
| 0, -7.5, -0.0, -0.0, -0.0, 0, 0, 0, 0, 0, 0, -7.5, 0, -0.0, -7.5, -7.5, -7.5, -7.5, 0, -0.0, -7.5, -7.5, -7.5, -7.5, 0, -0.0, -7.5, -7.5, -7.5, -7.5, 0, -0.0, -7.5, -7.5, -7.5
| -7.5, 0, -7.5, -0.0, -0.0, 0, 0, 0, 0, 0, 0, -7.5, -0.0, 0, -0.0, -7.5, -7.5, -7.5, -0.0, 0, -0.0, -7.5, -7.5, -7.5, -0.0, 0, -0.0, -7.5, -7.5, -7.5, -0.0, 0, -0.0, -7.5, -7.5
| -0.0, -7.5, 0, -0.0, -7.5, 0, 0, 0, 0, 0, 0, -7.5, -0.0, -0.0, 0, -7.5, -0.0, -7.5, -0.0, -0.0, 0, -7.5, -0.0, -7.5, -0.0, -0.0, 0, -7.5, -0.0, -7.5, -0.0, -0.0, 0, -7.5, -0.0
| -0.0, -0.0, -0.0, 0, -0.0, 0, 0, 0, 0, 0, 0, -7.5, -0.0, -7.5, -7.5, 0, -7.5, -7.5, -0.0, -7.5, -7.5, 0, -7.5, -7.5, -0.0, -7.5, -7.5, 0, -7.5, -7.5, -0.0, -7.5, -7.5, 0, -7.5
| -0.0, -0.0, -7.5, -0.0, 0, 0, 0, 0, 0, 0, 0, -7.5, -0.0, -7.5, -0.0, -7.5, 0, -7.5, -0.0, -7.5, -0.0, -7.5, 0, -7.5, -0.0, -7.5, -0.0, -7.5, 0, -7.5, -0.0, -7.5, -0.0, -7.5, 0
| 0, 0, 0, 0, 0, -7.5, -7.5, -7.5, -7.5, -7.5, -7.5, 0, 0, 0, 0, 0, 0, 0, 0, 0, 0, 0, 0, 0, 0, 0, 0, 0, 0, -7.5, -7.5, -7.5, -7.5, -7.5, -7.5
| 0, -7.5, -0.0, -0.0, -0.0, -7.5, 0, -0.0, -0.0, -0.0, -7.5, 0, 0, 0, 0, 0, 0, -0.0, 0, -7.5, 0, 0, 0, -0.0, 0, -7.5, 0, 0, 0, -7.5, 0, -0.0, -0.0, -0.0, -7.5
| -7.5, 0, -7.5, -0.0, -0.0, -7.5, -0.0, 0, -0.0, -0.0, -7.5, 0, 0, 0, 0, 0, 0, -0.0, -7.5, 0, -7.5, 0, 0, -0.0, -7.5, 0, -7.5, 0, 0, -7.5, -0.0, 0, -0.0, -0.0, -7.5
| -0.0, -7.5, 0, -0.0, -7.5, -7.5, -7.5, -0.0, 0, -0.0, -0.0, 0, 0, 0, 0, 0, 0, -0.0, 0, -7.5, 0, 0, -7.5, -0.0, 0, -7.5, 0, 0, -7.5, -7.5, -7.5, -0.0, 0, -0.0, -0.0
| -0.0, -0.0, -0.0, 0, -0.0, -7.5, -7.5, -0.0, -0.0, 0, -7.5, 0, 0, 0, 0, 0, 0, -0.0, 0, 0, 0, 0, 0, -0.0, 0, 0, 0, 0, 0, -7.5, -7.5, -0.0, -0.0, 0, -7.5
| -0.0, -0.0, -7.5, -0.0, 0, -7.5, -7.5, -0.0, -0.0, -0.0, 0, 0, 0, 0, 0, 0, 0, -0.0, 0, 0, -7.5, 0, 0, -0.0, 0, 0, -7.5, 0, 0, -7.5, -7.5, -0.0, -0.0, -0.0, 0
| 0, 0, 0, 0, 0, -7.5, -7.5, -7.5, -7.5, -7.5, -7.5, 0, 0, 0, 0, 0, 0, 0, 0, 0, 0, 0, 0, 0, 0, 0, 0, 0, 0, -7.5, -7.5, -7.5, -7.5, -7.5, -7.5
| 0, -7.5, -0.0, -0.0, -0.0, -7.5, 0, -0.0, -0.0, -0.0, -7.5, -0.0, 0, -7.5, 0, 0, 0, 0, 0, 0, 0, 0, 0, -0.0, 0, -7.5, 0, 0, 0, -7.5, 0, -0.0, -0.0, -0.0, -7.5
| -7.5, 0, -7.5, -0.0, -0.0, -7.5, -0.0, 0, -0.0, -0.0, -7.5, -0.0, -7.5, 0, -7.5, 0, 0, 0, 0, 0, 0, 0, 0, -0.0, -7.5, 0, -7.5, 0, 0, -7.5, -0.0, 0, -0.0, -0.0, -7.5
| -0.0, -7.5, 0, -0.0, -7.5, -7.5, -7.5, -0.0, 0, -0.0, -0.0, -0.0, 0, -7.5, 0, 0, -7.5, 0, 0, 0, 0, 0, 0, -0.0, 0, -7.5, 0, 0, -7.5, -7.5, -7.5, -0.0, 0, -0.0, -0.0
| -0.0, -0.0, -0.0, 0, -0.0, -7.5, -7.5, -0.0, -0.0, 0, -7.5, -0.0, 0, 0, 0, 0, 0, 0, 0, 0, 0, 0, 0, -0.0, 0, 0, 0, 0, 0, -7.5, -7.5, -0.0, -0.0, 0, -7.5
| -0.0, -0.0, -7.5, -0.0, 0, -7.5, -7.5, -0.0, -0.0, -0.0, 0, -0.0, 0, 0, -7.5, 0, 0, 0, 0, 0, 0, 0, 0, -0.0, 0, 0, -7.5, 0, 0, -7.5, -7.5, -0.0, -0.0, -0.0, 0
| 0, 0, 0, 0, 0, -7.5, -7.5, -7.5, -7.5, -7.5, -7.5, 0, 0, 0, 0, 0, 0, 0, 0, 0, 0, 0, 0, 0, 0, 0, 0, 0, 0, 0, 0, 0, 0, 0, 0
| 0, -7.5, -0.0, -0.0, -0.0, -7.5, 0, -0.0, -0.0, -0.0, -0.0, -0.0, 0, -7.5, 0, 0, 0, -0.0, 0, -7.5, 0, 0, 0, 0, 0, 0, 0, 0, 0, -0.0, 0, -7.5, 0, 0, 0
| -7.5, 0, -7.5, -0.0, -0.0, -7.5, -0.0, 0, -0.0, -0.0, -0.0, -0.0, -7.5, 0, -7.5, 0, 0, -0.0, -7.5, 0, -7.5, 0, 0, 0, 0, 0, 0, 0, 0, -0.0, -7.5, 0, -7.5, 0, 0
| -0.0, -7.5, 0, -0.0, -7.5, -7.5, -7.5, -0.0, 0, -0.0, -0.0, -0.0, 0, -7.5, 0, 0, -7.5, -0.0, 0, -7.5, 0, 0, -7.5, 0, 0, 0, 0, 0, 0, -0.0, 0, -7.5, 0, 0, -7.5
| -0.0, -0.0, -0.0, 0, -0.0, -7.5, -7.5, -0.0, -0.0, 0, -0.0, -0.0, 0, 0, 0, 0, 0, -0.0, 0, 0, 0, 0, 0, 0, 0, 0, 0, 0, 0, -0.0, 0, 0, 0, 0, 0
| -0.0, -0.0, -7.5, -0.0, 0, -7.5, -7.5, -0.0, -0.0, -0.0, 0, -0.0, 0, 0, -7.5, 0, 0, -0.0, 0, 0, -7.5, 0, 0, 0, 0, 0, 0, 0, 0, -0.0, 0, 0, -7.5, 0, 0
| 0, 0, 0, 0, 0, -7.5, -7.5, -7.5, -7.5, -7.5, -7.5, -7.5, -7.5, -7.5, -7.5, -7.5, -7.5, -7.5, -7.5, -7.5, -7.5, -7.5, -7.5, 0, 0, 0, 0, 0, 0, 0, 0, 0, 0, 0, 0
| 0, -7.5, -0.0, -0.0, -0.0, -7.5, 0, -0.0, -7.5, -0.0, -0.0, -7.5, 0, -0.0, -7.5, -0.0, -0.0, -7.5, 0, -0.0, -7.5, -0.0, -0.0, -0.0, 0, -7.5, 0, 0, 0, 0, 0, 0, 0, 0, 0
| -7.5, 0, -7.5, -0.0, -0.0, -7.5, -0.0, 0, -0.0, -0.0, -0.0, -7.5, -0.0, 0, -0.0, -0.0, -0.0, -7.5, -0.0, 0, -0.0, -0.0, -0.0, -0.0, -7.5, 0, -7.5, 0, 0, 0, 0, 0, 0, 0, 0
| -0.0, -7.5, 0, -0.0, -7.5, -7.5, -7.5, -0.0, 0, -0.0, -0.0, -7.5, -7.5, -0.0, 0, -0.0, -0.0, -7.5, -7.5, -0.0, 0, -0.0, -0.0, -0.0, 0, -7.5, 0, 0, -7.5, 0, 0, 0, 0, 0, 0
| -0.0, -0.0, -0.0, 0, -0.0, -7.5, -7.5, -7.5, -7.5, 0, -0.0, -7.5, -7.5, -7.5, -7.5, 0, -0.0, -7.5, -7.5, -7.5, -7.5, 0, -0.0, -0.0, 0, 0, 0, 0, 0, 0, 0, 0, 0, 0, 0
| -0.0, -0.0, -7.5, -0.0, 0, -7.5, -7.5, -7.5, -0.0, -0.0, 0, -7.5, -7.5, -7.5, -0.0, -0.0, 0, -7.5, -7.5, -7.5, -0.0, -0.0, 0, -0.0, 0, 0, -7.5, 0, 0, 0, 0, 0, 0, 0, 0 |];
adjacent = [| 0, 1, 1, 1, 1, 1, 0, 1, 1, 1, 1, 1, 0, 1, 1, 1, 1, 1, 0, 1, 1, 1, 1, 1, 0, 1, 1, 1, 1, 1, 0, 1, 1, 1, 1
| 1, 0, 1, 1, 1, 1, 1, 0, 1, 1, 1, 1, 1, 0, 1, 1, 1, 1, 1, 0, 1, 1, 1, 1, 1, 0, 1, 1, 1, 1, 1, 0, 1, 1, 1
| 1, 1, 0, 1, 1, 1, 1, 1, 0, 1, 1, 1, 1, 1, 0, 1, 1, 1, 1, 1, 0, 1, 1, 1, 1, 1, 0, 1, 1, 1, 1, 1, 0, 1, 1
| 1, 1, 1, 0, 1, 1, 1, 1, 1, 0, 1, 1, 1, 1, 1, 0, 1, 1, 1, 1, 1, 0, 1, 1, 1, 1, 1, 0, 1, 1, 1, 1, 1, 0, 1
| 1, 1, 1, 1, 0, 1, 1, 1, 1, 1, 0, 1, 1, 1, 1, 1, 0, 1, 1, 1, 1, 1, 0, 1, 1, 1, 1, 1, 0, 1, 1, 1, 1, 1, 0
| 1, 1, 1, 1, 1, 0, 0, 0, 0, 0, 0, 1, 1, 1, 1, 1, 1, 1, 1, 1, 1, 1, 1, 1, 1, 1, 1, 1, 1, 1, 1, 1, 1, 1, 1
| 0, 1, 1, 1, 1, 0, 0, 0, 0, 0, 0, 1, 0, 1, 1, 1, 1, 1, 0, 1, 1, 1, 1, 1, 0, 1, 1, 1, 1, 1, 0, 1, 1, 1, 1
| 1, 0, 1, 1, 1, 0, 0, 0, 0, 0, 0, 1, 1, 0, 1, 1, 1, 1, 1, 0, 1, 1, 1, 1, 1, 0, 1, 1, 1, 1, 1, 0, 1, 1, 1
| 1, 1, 0, 1, 1, 0, 0, 0, 0, 0, 0, 1, 1, 1, 0, 1, 1, 1, 1, 1, 0, 1, 1, 1, 1, 1, 0, 1, 1, 1, 1, 1, 0, 1, 1
| 1, 1, 1, 0, 1, 0, 0, 0, 0, 0, 0, 1, 1, 1, 1, 0, 1, 1, 1, 1, 1, 0, 1, 1, 1, 1, 1, 0, 1, 1, 1, 1, 1, 0, 1
| 1, 1, 1, 1, 0, 0, 0, 0, 0, 0, 0, 1, 1, 1, 1, 1, 0, 1, 1, 1, 1, 1, 0, 1, 1, 1, 1, 1, 0, 1, 1, 1, 1, 1, 0
| 1, 1, 1, 1, 1, 1, 1, 1, 1, 1, 1, 0, 0, 0, 0, 0, 0, 1, 1, 1, 1, 1, 1, 1, 1, 1, 1, 1, 1, 1, 1, 1, 1, 1, 1
| 0, 1, 1, 1, 1, 1, 0, 1, 1, 1, 1, 0, 0, 0, 0, 0, 0, 1, 0, 1, 1, 1, 1, 1, 0, 1, 1, 1, 1, 1, 0, 1, 1, 1, 1
| 1, 0, 1, 1, 1, 1, 1, 0, 1, 1, 1, 0, 0, 0, 0, 0, 0, 1, 1, 0, 1, 1, 1, 1, 1, 0, 1, 1, 1, 1, 1, 0, 1, 1, 1
| 1, 1, 0, 1, 1, 1, 1, 1, 0, 1, 1, 0, 0, 0, 0, 0, 0, 1, 1, 1, 0, 1, 1, 1, 1, 1, 0, 1, 1, 1, 1, 1, 0, 1, 1
| 1, 1, 1, 0, 1, 1, 1, 1, 1, 0, 1, 0, 0, 0, 0, 0, 0, 1, 1, 1, 1, 0, 1, 1, 1, 1, 1, 0, 1, 1, 1, 1, 1, 0, 1
| 1, 1, 1, 1, 0, 1, 1, 1, 1, 1, 0, 0, 0, 0, 0, 0, 0, 1, 1, 1, 1, 1, 0, 1, 1, 1, 1, 1, 0, 1, 1, 1, 1, 1, 0
| 1, 1, 1, 1, 1, 1, 1, 1, 1, 1, 1, 1, 1, 1, 1, 1, 1, 0, 0, 0, 0, 0, 0, 1, 1, 1, 1, 1, 1, 1, 1, 1, 1, 1, 1
| 0, 1, 1, 1, 1, 1, 0, 1, 1, 1, 1, 1, 0, 1, 1, 1, 1, 0, 0, 0, 0, 0, 0, 1, 0, 1, 1, 1, 1, 1, 0, 1, 1, 1, 1
| 1, 0, 1, 1, 1, 1, 1, 0, 1, 1, 1, 1, 1, 0, 1, 1, 1, 0, 0, 0, 0, 0, 0, 1, 1, 0, 1, 1, 1, 1, 1, 0, 1, 1, 1
| 1, 1, 0, 1, 1, 1, 1, 1, 0, 1, 1, 1, 1, 1, 0, 1, 1, 0, 0, 0, 0, 0, 0, 1, 1, 1, 0, 1, 1, 1, 1, 1, 0, 1, 1
| 1, 1, 1, 0, 1, 1, 1, 1, 1, 0, 1, 1, 1, 1, 1, 0, 1, 0, 0, 0, 0, 0, 0, 1, 1, 1, 1, 0, 1, 1, 1, 1, 1, 0, 1
| 1, 1, 1, 1, 0, 1, 1, 1, 1, 1, 0, 1, 1, 1, 1, 1, 0, 0, 0, 0, 0, 0, 0, 1, 1, 1, 1, 1, 0, 1, 1, 1, 1, 1, 0
| 1, 1, 1, 1, 1, 1, 1, 1, 1, 1, 1, 1, 1, 1, 1, 1, 1, 1, 1, 1, 1, 1, 1, 0, 0, 0, 0, 0, 0, 1, 1, 1, 1, 1, 1
| 0, 1, 1, 1, 1, 1, 0, 1, 1, 1, 1, 1, 0, 1, 1, 1, 1, 1, 0, 1, 1, 1, 1, 0, 0, 0, 0, 0, 0, 1, 0, 1, 1, 1, 1
| 1, 0, 1, 1, 1, 1, 1, 0, 1, 1, 1, 1, 1, 0, 1, 1, 1, 1, 1, 0, 1, 1, 1, 0, 0, 0, 0, 0, 0, 1, 1, 0, 1, 1, 1
| 1, 1, 0, 1, 1, 1, 1, 1, 0, 1, 1, 1, 1, 1, 0, 1, 1, 1, 1, 1, 0, 1, 1, 0, 0, 0, 0, 0, 0, 1, 1, 1, 0, 1, 1
| 1, 1, 1, 0, 1, 1, 1, 1, 1, 0, 1, 1, 1, 1, 1, 0, 1, 1, 1, 1, 1, 0, 1, 0, 0, 0, 0, 0, 0, 1, 1, 1, 1, 0, 1
| 1, 1, 1, 1, 0, 1, 1, 1, 1, 1, 0, 1, 1, 1, 1, 1, 0, 1, 1, 1, 1, 1, 0, 0, 0, 0, 0, 0, 0, 1, 1, 1, 1, 1, 0
| 1, 1, 1, 1, 1, 1, 1, 1, 1, 1, 1, 1, 1, 1, 1, 1, 1, 1, 1, 1, 1, 1, 1, 1, 1, 1, 1, 1, 1, 0, 0, 0, 0, 0, 0
| 0, 1, 1, 1, 1, 1, 0, 1, 1, 1, 1, 1, 0, 1, 1, 1, 1, 1, 0, 1, 1, 1, 1, 1, 0, 1, 1, 1, 1, 0, 0, 0, 0, 0, 0
| 1, 0, 1, 1, 1, 1, 1, 0, 1, 1, 1, 1, 1, 0, 1, 1, 1, 1, 1, 0, 1, 1, 1, 1, 1, 0, 1, 1, 1, 0, 0, 0, 0, 0, 0
| 1, 1, 0, 1, 1, 1, 1, 1, 0, 1, 1, 1, 1, 1, 0, 1, 1, 1, 1, 1, 0, 1, 1, 1, 1, 1, 0, 1, 1, 0, 0, 0, 0, 0, 0
| 1, 1, 1, 0, 1, 1, 1, 1, 1, 0, 1, 1, 1, 1, 1, 0, 1, 1, 1, 1, 1, 0, 1, 1, 1, 1, 1, 0, 1, 0, 0, 0, 0, 0, 0
| 1, 1, 1, 1, 0, 1, 1, 1, 1, 1, 0, 1, 1, 1, 1, 1, 0, 1, 1, 1, 1, 1, 0, 1, 1, 1, 1, 1, 0, 0, 0, 0, 0, 0, 0 |];
